************************************************************************
file with basedata            : n/a
initial value random generator: n/a
************************************************************************
projects                      :  1
jobs (incl. supersource/sink ):  122
horizon                       :  667
RESOURCES
  - renewable                 :  4   R
  - nonrenewable              :  0   N
  - doubly constrained        :  0   D
************************************************************************
PROJECT INFORMATION:
pronr.  #jobs rel.date duedate tardcost  MPM-Time
    1    120      0      115      105      115
************************************************************************
PRECEDENCE RELATIONS:
jobnr.    #modes  #successors   successors
   1        1          3           2   3   4
   2        1          3           6  14  61
   3        1          3          12  25  38
   4        1          3           5   8  11
   5        1          2           7  36
   6        1          3          18  19  24
   7        1          3          15  32  66
   8        1          3           9  10  17
   9        1          3          23  98 103
  10        1          3          13  21  33
  11        1          3          20  29 109
  12        1          3          26  63  67
  13        1          3          43  85  87
  14        1          3          16  67  76
  15        1          3          27  34  53
  16        1          1          69
  17        1          3          34  38  62
  18        1          3          39  66  67
  19        1          3          26  37  58
  20        1          3          22  31  61
  21        1          2          30  34
  22        1          3          41  42  48
  23        1          3          35  36 106
  24        1          3          30  60  72
  25        1          3          35  71 108
  26        1          3          28  47  94
  27        1          3          57  61  64
  28        1          2          68 102
  29        1          3          35  40  45
  30        1          3          59  82 115
  31        1          2          75  87
  32        1          2          44  63
  33        1          3          51 100 110
  34        1          1          39
  35        1          2          50  94
  36        1          2          49 107
  37        1          3          84  87  96
  38        1          1          74
  39        1          2          60  70
  40        1          3          56  75 107
  41        1          3          46  56  73
  42        1          3          76  89  95
  43        1          3          49  54  68
  44        1          3          45  47  76
  45        1          3          46  55  84
  46        1          3          52  68  86
  47        1          2          50  51
  48        1          2         105 106
  49        1          1          52
  50        1          1          82
  51        1          3          55  62  79
  52        1          1         104
  53        1          3          55  77  90
  54        1          3          71  88 102
  55        1          2          93  95
  56        1          3          59  69  70
  57        1          2          85  92
  58        1          3          60  70  97
  59        1          1          65
  60        1          3          71 105 109
  61        1          3          65  74  78
  62        1          3          72  81 108
  63        1          3          79  91  97
  64        1          2          72  78
  65        1          3          83  90  97
  66        1          1         113
  67        1          3          73  75  80
  68        1          3          69 105 110
  69        1          2          81 111
  70        1          2          80 101
  71        1          3          83  86 100
  72        1          3          73  86  91
  73        1          1          84
  74        1          2          77  96
  75        1          3          82  85  99
  76        1          2          78  93
  77        1          2          80  92
  78        1          3          81  90 104
  79        1          2          95 103
  80        1          3          89  93  99
  81        1          1          83
  82        1          1         100
  83        1          1         119
  84        1          1          88
  85        1          2          88 110
  86        1          1         115
  87        1          1         117
  88        1          1          89
  89        1          1         111
  90        1          2          92  94
  91        1          1         103
  92        1          1         108
  93        1          2          98 115
  94        1          3          99 111 118
  95        1          2          96 107
  96        1          1         112
  97        1          2          98 101
  98        1          2         102 104
  99        1          1         112
 100        1          2         101 116
 101        1          1         113
 102        1          2         106 117
 103        1          2         109 121
 104        1          1         112
 105        1          1         116
 106        1          1         114
 107        1          1         114
 108        1          1         120
 109        1          2         114 120
 110        1          1         117
 111        1          1         119
 112        1          2         113 121
 113        1          1         120
 114        1          1         116
 115        1          1         118
 116        1          1         119
 117        1          1         118
 118        1          1         121
 119        1          1         122
 120        1          1         122
 121        1          1         122
 122        1          0        
************************************************************************
REQUESTS/DURATIONS:
jobnr. mode duration  R 1  R 2  R 3  R 4
------------------------------------------------------------------------
  1      1     0    
  2      1    10       6   6   6   3   6   6   6   6   6   6
                       2   2   2   1   2   2   2   2   2   2
                       8   8   8   4   8   8   8   8   8   8
                       9   9   9   5   9   9   9   9   9   9
  3      1     1       4
                       9
                      10
                       3
  4      1     5       2   2   1   2   2
                       5   5   3   5   5
                       1   1   1   1   1
                      10  10   5  10  10
  5      1     1       1
                       3
                       2
                       5
  6      1     5       5  10  10  10  10
                       1   1   1   1   1
                       2   3   3   3   3
                       3   6   6   6   6
  7      1     8       1   2   2   2   2   2   2   2
                       5  10  10  10  10  10  10  10
                       3   5   5   5   5   5   5   5
                       2   3   3   3   3   3   3   3
  8      1     5      10  10   5  10  10
                       3   3   2   3   3
                       3   3   2   3   3
                       4   4   2   4   4
  9      1     5       9   9   9   9   9
                       8   8   8   8   8
                       1   1   1   1   1
                       2   2   2   2   2
 10      1     7       8   8   4   8   8   8   8
                       3   3   2   3   3   3   3
                       1   1   1   1   1   1   1
                      10  10   5  10  10  10  10
 11      1     2       3   3
                       9   9
                       5   5
                       2   2
 12      1     5       5  10   5  10  10
                       3   6   3   6   6
                       5  10   5  10  10
                       3   6   3   6   6
 13      1     8       5  10   5  10  10  10  10  10
                       4   7   4   7   7   7   7   7
                       1   2   1   2   2   2   2   2
                       1   1   1   1   1   1   1   1
 14      1     7       8   8   8   8   4   8   8
                       2   2   2   2   1   2   2
                       1   1   1   1   1   1   1
                       7   7   7   7   4   7   7
 15      1     9      10  10  10  10   5  10  10  10  10
                       8   8   8   8   4   8   8   8   8
                       1   1   1   1   1   1   1   1   1
                       9   9   9   9   5   9   9   9   9
 16      1    10       1   1   1   1   1   1   1   1   1   1
                       5   5   5   3   5   5   5   5   5   3
                       8   8   8   4   8   8   8   8   8   4
                       9   9   9   5   9   9   9   9   9   5
 17      1     2       3   2
                       3   2
                       1   1
                       3   2
 18      1     7       5   5   5   3   5   5   5
                       7   7   7   4   7   7   7
                       6   6   6   3   6   6   6
                      10  10  10   5  10  10  10
 19      1     5       1   1   1   1   1
                       8   8   8   8   4
                       6   6   6   6   3
                       8   8   8   8   4
 20      1    10       5   5   3   5   5   5   5   5   3   5
                       3   3   2   3   3   3   3   3   2   3
                       1   1   1   1   1   1   1   1   1   1
                       2   2   1   2   2   2   2   2   1   2
 21      1     3       3   3   3
                       5   5   5
                       1   1   1
                       8   8   8
 22      1     3       5   5   3
                       3   3   2
                       4   4   2
                       3   3   2
 23      1     4      10  10  10  10
                       8   8   8   8
                       1   1   1   1
                       1   1   1   1
 24      1     7       9   9   5   9   9   9   9
                       8   8   4   8   8   8   8
                       5   5   3   5   5   5   5
                       1   1   1   1   1   1   1
 25      1     7       9   9   9   9   5   9   9
                       9   9   9   9   5   9   9
                      10  10  10  10   5  10  10
                       4   4   4   4   2   4   4
 26      1     2       4   8
                       2   3
                       3   6
                       3   6
 27      1    10       8   8   4   4   8   8   8   8   4   8
                       9   9   5   5   9   9   9   9   5   9
                       2   2   1   1   2   2   2   2   1   2
                       5   5   3   3   5   5   5   5   3   5
 28      1     5       4   4   4   4   4
                       8   8   8   8   8
                       2   2   2   2   2
                       3   3   3   3   3
 29      1     4       2   2   2   1
                       8   8   8   4
                       8   8   8   4
                       8   8   8   4
 30      1     3       7   7   7
                       5   5   5
                       9   9   9
                       6   6   6
 31      1    10       4   4   8   8   8   4   8   8   4   8
                       2   2   4   4   4   2   4   4   2   4
                       4   4   7   7   7   4   7   7   4   7
                       4   4   8   8   8   4   8   8   4   8
 32      1     9       7   7   7   7   7   7   7   7   4
                       5   5   5   5   5   5   5   5   3
                       3   3   3   3   3   3   3   3   2
                       5   5   5   5   5   5   5   5   3
 33      1     5       3   3   3   3   3
                       1   1   1   1   1
                       8   8   8   8   8
                       4   4   4   4   4
 34      1     1       8
                      10
                       9
                       4
 35      1     7       1   1   1   1   1   1   1
                       6   3   6   6   6   6   6
                       1   1   1   1   1   1   1
                       5   3   5   5   5   5   5
 36      1    10       6   6   6   6   3   6   6   3   6   6
                       4   4   4   4   2   4   4   2   4   4
                       1   1   1   1   1   1   1   1   1   1
                       5   5   5   5   3   5   5   3   5   5
 37      1     2       4   4
                       1   1
                       5   5
                       9   9
 38      1     1       7
                       4
                       2
                       6
 39      1     8       7   7   4   7   7   4   7   7
                       7   7   4   7   7   4   7   7
                       7   7   4   7   7   4   7   7
                       3   3   2   3   3   2   3   3
 40      1     4       6   6   6   3
                       4   4   4   2
                       1   1   1   1
                       9   9   9   5
 41      1     5       3   5   5   5   5
                       3   6   6   6   6
                       4   7   7   7   7
                       1   1   1   1   1
 42      1     9       1   1   1   1   1   1   1   1   1
                       5  10   5  10  10   5  10  10  10
                       1   2   1   2   2   1   2   2   2
                       2   4   2   4   4   2   4   4   4
 43      1     4       6   6   6   6
                       9   9   9   9
                       7   7   7   7
                       5   5   5   5
 44      1     3       2   1   1
                       3   2   2
                       2   1   1
                       2   1   1
 45      1     9       8   4   4   8   4   4   8   4   4
                       8   4   4   8   4   4   8   4   4
                       2   1   1   2   1   1   2   1   1
                       7   4   4   7   4   4   7   4   4
 46      1     2       9   9
                       4   4
                      10  10
                       5   5
 47      1     6       7   4   7   7   4   7
                       2   1   2   2   1   2
                       9   5   9   9   5   9
                       7   4   7   7   4   7
 48      1     3       3   3   3
                       4   4   4
                       8   8   8
                       3   3   3
 49      1     1       2
                       8
                      10
                       9
 50      1     1      10
                       6
                       6
                       9
 51      1     9       2   2   2   1   1   2   2   2   2
                       2   2   2   1   1   2   2   2   2
                       6   6   6   3   3   6   6   6   6
                      10  10  10   5   5  10  10  10  10
 52      1     2       6   6
                       5   5
                       2   2
                       9   9
 53      1     6       2   2   4   4   4   2
                       2   2   3   3   3   2
                       2   2   3   3   3   2
                       4   4   8   8   8   4
 54      1    10       6   6   6   6   6   6   6   6   3   6
                       2   2   2   2   2   2   2   2   1   2
                       6   6   6   6   6   6   6   6   3   6
                       9   9   9   9   9   9   9   9   5   9
 55      1     3      10  10  10
                      10  10  10
                      10  10  10
                       4   4   4
 56      1     7       8   8   4   8   4   8   8
                       2   2   1   2   1   2   2
                       5   5   3   5   3   5   5
                       8   8   4   8   4   8   8
 57      1     8       4   4   4   2   4   4   4   4
                       4   4   4   2   4   4   4   4
                       4   4   4   2   4   4   4   4
                       6   6   6   3   6   6   6   6
 58      1     7       4   4   4   4   4   4   4
                       2   2   2   2   2   2   2
                       7   7   7   7   7   7   7
                       2   2   2   2   2   2   2
 59      1     4       3   3   2   3
                       2   2   1   2
                       1   1   1   1
                       4   4   2   4
 60      1     6       1   1   1   1   1   1
                       6   6   6   3   6   3
                       2   2   2   1   2   1
                       7   7   7   4   7   4
 61      1     7       9   5   9   9   9   9   9
                       2   1   2   2   2   2   2
                       5   3   5   5   5   5   5
                       5   3   5   5   5   5   5
 62      1     3       2   3   3
                       4   7   7
                       4   8   8
                       2   3   3
 63      1     5       1   1   1   1   1
                       5   5   5   5   5
                       9   9   9   9   9
                       2   2   2   2   2
 64      1     8       3   3   5   3   5   5   3   5
                       3   3   6   3   6   6   3   6
                       4   4   8   4   8   8   4   8
                       2   2   3   2   3   3   2   3
 65      1     1       3
                       8
                       4
                       6
 66      1     4       1   1   1   1
                       1   1   1   1
                       5   5   9   9
                       4   4   8   8
 67      1    10       6   6   6   6   6   6   6   6   6   3
                       3   3   3   3   3   3   3   3   3   2
                       2   2   2   2   2   2   2   2   2   1
                      10  10  10  10  10  10  10  10  10   5
 68      1     4       3   3   3   3
                       3   3   3   3
                       7   7   7   7
                       1   1   1   1
 69      1     5       3   5   5   5   5
                       2   3   3   3   3
                       1   1   1   1   1
                       3   6   6   6   6
 70      1     6       4   8   8   8   8   8
                       4   7   7   7   7   7
                       5   9   9   9   9   9
                       3   5   5   5   5   5
 71      1     3       1   1   1
                       5  10  10
                       2   4   4
                       3   6   6
 72      1     3      10   5  10
                       3   2   3
                       5   3   5
                       3   2   3
 73      1     9       3   3   2   3   3   3   3   3   3
                       2   2   1   2   2   2   2   2   2
                       9   9   5   9   9   9   9   9   9
                       9   9   5   9   9   9   9   9   9
 74      1     8       8   4   8   8   8   8   4   8
                       1   1   1   1   1   1   1   1
                       2   1   2   2   2   2   1   2
                      10   5  10  10  10  10   5  10
 75      1     3       4   4   4
                       3   3   3
                       6   6   6
                       5   5   5
 76      1    10       1   1   1   1   1   1   1   1   1   1
                       7   7   7   7   7   4   7   4   7   4
                       8   8   8   8   8   4   8   4   8   4
                       1   1   1   1   1   1   1   1   1   1
 77      1     9      10  10  10  10  10  10  10  10  10
                      10  10  10  10  10  10  10  10  10
                       3   3   3   3   3   3   3   3   3
                       9   9   9   9   9   9   9   9   9
 78      1     7       7   7   7   7   7   7   4
                       8   8   8   8   8   8   4
                       8   8   8   8   8   8   4
                       1   1   1   1   1   1   1
 79      1     1       5
                       4
                       5
                       5
 80      1    10       7   7   7   4   4   7   7   4   7   7
                       3   3   3   2   2   3   3   2   3   3
                       5   5   5   3   3   5   5   3   5   5
                       8   8   8   4   4   8   8   4   8   8
 81      1    10       2   1   2   2   2   2   2   2   1   1
                       2   1   2   2   2   2   2   2   1   1
                       8   4   8   8   8   8   8   8   4   4
                       5   3   5   5   5   5   5   5   3   3
 82      1     4       8   8   4   4
                       8   8   4   4
                       6   6   3   3
                       9   9   5   5
 83      1    10       9   9   9   9   9   5   9   9   9   9
                       8   8   8   8   8   4   8   8   8   8
                       2   2   2   2   2   1   2   2   2   2
                       6   6   6   6   6   3   6   6   6   6
 84      1     2       8   8
                       9   9
                       3   3
                       3   3
 85      1     6       4   4   4   4   4   2
                       6   6   6   6   6   3
                       3   3   3   3   3   2
                       1   1   1   1   1   1
 86      1     8       1   1   1   1   1   1   1   1
                       6   6   6   6   6   6   6   6
                       4   4   4   4   4   4   4   4
                       5   5   5   5   5   5   5   5
 87      1     7       4   2   4   2   4   2   2
                       7   4   7   4   7   4   4
                       2   1   2   1   2   1   1
                       8   4   8   4   8   4   4
 88      1     5       1   1   1   1   1
                       1   2   2   2   1
                       1   2   2   2   1
                       2   4   4   4   2
 89      1     7      10  10  10  10  10  10  10
                      10  10  10  10  10  10  10
                       3   3   3   3   3   3   3
                       1   1   1   1   1   1   1
 90      1     2       7   7
                       6   6
                       7   7
                       2   2
 91      1     6       9   9   9   9   9   5
                       2   2   2   2   2   1
                       3   3   3   3   3   2
                       7   7   7   7   7   4
 92      1     2       3   2
                       8   4
                       8   4
                       9   5
 93      1     3       4   2   2
                       6   3   3
                       4   2   2
                       8   4   4
 94      1     3       4   4   4
                      10  10  10
                       5   5   5
                       2   2   2
 95      1     5       6   6   6   6   6
                       7   7   7   7   7
                       7   7   7   7   7
                       2   2   2   2   2
 96      1     3       3   3   3
                       3   3   3
                       4   4   4
                       9   9   9
 97      1     9       4   7   4   7   7   7   4   4   7
                       4   8   4   8   8   8   4   4   8
                       3   6   3   6   6   6   3   3   6
                       4   8   4   8   8   8   4   4   8
 98      1     8       2   1   2   2   2   2   1   2
                       9   5   9   9   9   9   5   9
                       1   1   1   1   1   1   1   1
                       6   3   6   6   6   6   3   6
 99      1     8      10  10  10  10  10   5   5  10
                       8   8   8   8   8   4   4   8
                       7   7   7   7   7   4   4   7
                       8   8   8   8   8   4   4   8
100      1     9       5   5   5   5   5   3   3   5   5
                       5   5   5   5   5   3   3   5   5
                       1   1   1   1   1   1   1   1   1
                       3   3   3   3   3   2   2   3   3
101      1     3       1   1   1
                      10   5  10
                       6   3   6
                       4   2   4
102      1     7       6   6   6   6   6   6   6
                       5   5   5   5   5   5   5
                      10  10  10  10  10  10  10
                       9   9   9   9   9   9   9
103      1     8       6   6   6   3   6   6   6   3
                      10  10  10   5  10  10  10   5
                       3   3   3   2   3   3   3   2
                       2   2   2   1   2   2   2   1
104      1     5       5  10  10   5  10
                       2   4   4   2   4
                       1   2   2   1   2
                       3   6   6   3   6
105      1     4       5   9   9   9
                       1   2   2   2
                       2   3   3   3
                       2   3   3   3
106      1     7       1   1   1   1   1   1   1
                       9   9   9   9   5   9   5
                      10  10  10  10   5  10   5
                       4   4   4   4   2   4   2
107      1     3       6   6   6
                       4   4   4
                       9   9   9
                       7   7   7
108      1     8       1   1   1   1   1   1   1   1
                       5   5   9   9   5   9   9   9
                       1   1   2   2   1   2   2   2
                       5   5   9   9   5   9   9   9
109      1     2       8   8
                       7   7
                       6   6
                       8   8
110      1     4       8   8   8   8
                       1   1   1   1
                       5   5   5   5
                      10  10  10  10
111      1     6       6   6   6   3   6   6
                       8   8   8   4   8   8
                       3   3   3   2   3   3
                       2   2   2   1   2   2
112      1     5       1   1   1   1   1
                       7   7   7   7   7
                       6   6   6   6   6
                       1   1   1   1   1
113      1     9       6   6   3   6   6   3   6   6   6
                       4   4   2   4   4   2   4   4   4
                       5   5   3   5   5   3   5   5   5
                       4   4   2   4   4   2   4   4   4
114      1     8       1   1   1   1   1   1   1   1
                       8   8   8   8   8   8   8   4
                       6   6   6   6   6   6   6   3
                       7   7   7   7   7   7   7   4
115      1     2       5  10
                       3   5
                       4   8
                       2   3
116      1     7       5   9   9   9   5   9   9
                       4   8   8   8   4   8   8
                       5   9   9   9   5   9   9
                       4   8   8   8   4   8   8
117      1     7       5   5   5   3   3   5   5
                       5   5   5   3   3   5   5
                       9   9   9   5   5   9   9
                      10  10  10   5   5  10  10
118      1     2       7   7
                       8   8
                       8   8
                       4   4
119      1     8       5   5   5   5   5   3   5   5
                       2   2   2   2   2   1   2   2
                       5   5   5   5   5   3   5   5
                       1   1   1   1   1   1   1   1
120      1     5       2   3   3   2   2
                       4   7   7   4   4
                       5  10  10   5   5
                       1   1   1   1   1
121      1     2       8   8
                       8   8
                       3   3
                       2   2
122      1     0    
************************************************************************
RESOURCEAVAILABILITIES:
  R 1  R 2  R 3  R 4

  25  25  25  25  25  25  25  25  25  25  13  13  25  25  13  13  25  13  25  25  25  25  25  25  25  25  25  25  25  25  25  25  25  25  25  13  25  25  25  25  25  13  25  25  25  25  25  25  13  25  25  25  25  25  25  25  25  25  13  25  25  13  25  25  25  25  25  25  25  25  13  25  13  25  25  25  13  25  25  25  25  25  25  13  13  25  25  25  25  13  25  25  13  25  25  25  25  25  25  25  25  25  25  13  25  25  13  25  13  13  13  25  13  25  25  25  13  25  25  13  25  25  25  25  25  25  25  25  25  25  25  25  25  25  25  25  25  25  25  25  25  25  25  25  25  25  25  13  13  25  13  25  25  25  25  25  25  25  25  25  25  25  25  25  25  25  25  25  13  13  25  25  25  25  25  13  25  13  25  13  25  25  13  25  25  13  25  25  25  25  25  25  25  25  25  25  25  25  25  25  13  25  25  25  13  13  13  25  25  13  25  25  25  25  25  25  25  25  25  25  13  25  25  25  25  25  25  25  25  25  25  25  25  25  25  25  25  13  13  13  25  25  25  25  25  13  25  13  25  25  25  25  25  25  25  25  25  25  25  25  13  13  25  25  25  25  25  25  25  25  25  25  25  25  25  13  25  25  25  25  25  13  25  25  25  25  25  25  13  25  13  13  25  25  25  13  25  25  25  25  25  25  25  25  13  25  13  25  25  25  25  25  25  25  25  25  25  25  25  13  25  25  25  25  25  25  25  25  25  25  25  25  13  25  25  25  13  25  25  25  13  25  25  25  13  25  13  25  25  25  25  13  13  13  25  25  25  25  25  25  25  25  25  25  13  25  25  25  25  13  25  25  25  25  13  25  25  25  25  25  13  25  25  25  13  13  25  25  25  13  13  25  25  25  25  13  25  25  25  13  13  25  25  25  25  25  25  25  25  25  25  25  25  25  25  25  25  25  25  25  13  25  13  13  25  13  25  13  25  25  25  25  25  25  13  25  25  25  25  25  25  25  25  13  25  25  25  13  25  25  25  25  25  13  13  13  25  25  25  25  25  13  13  13  25  25  25  25  25  25  25  13  25  25  25  25  13  25  25  25  25  25  25  25  13  13  25  25  25  25  25  25  25  25  25  25  25  25  25  25  25  25  25  25  25  25  25  13  25  25  25  13  13  13  25  13  25  25  25  13  25  25  13  25  25  25  25  13  25  25  25  25  25  25  25  25  13  25  25  25  25  25  25  13  25  25  25  25  25  25  25  25  25  13  25  25  13  25  25  25  25  25  13  13  25  25  25  13  25  25  25  25  13  25  25  25  13  25  25  25  25  25  25  13  25  25  25  25  13  13  13  25  25  25  13  25  25  13  25  25  25  25  25  25  25  25  25  13  25  25  25  25  13  13  25  13  25  25  25  25  25  25  25  25  25  25  25  25  25  25  25  13  25  25  25  13  25  25  25  25  25  25  13  25  25  25  25  25  25  25  13  13  25  25  13  25  25  25  25  13  13  13  13  25  25  25  25

  26  26  26  26  26  26  26  26  26  26  13  13  26  26  13  13  26  13  26  26  26  26  26  26  26  26  26  26  26  26  26  26  26  26  26  13  26  26  26  26  26  13  26  26  26  26  26  26  13  26  26  26  26  26  26  26  26  26  13  26  26  13  26  26  26  26  26  26  26  26  13  26  13  26  26  26  13  26  26  26  26  26  26  13  13  26  26  26  26  13  26  26  13  26  26  26  26  26  26  26  26  26  26  13  26  26  13  26  13  13  13  26  13  26  26  26  13  26  26  13  26  26  26  26  26  26  26  26  26  26  26  26  26  26  26  26  26  26  26  26  26  26  26  26  26  26  26  13  13  26  13  26  26  26  26  26  26  26  26  26  26  26  26  26  26  26  26  26  13  13  26  26  26  26  26  13  26  13  26  13  26  26  13  26  26  13  26  26  26  26  26  26  26  26  26  26  26  26  26  26  13  26  26  26  13  13  13  26  26  13  26  26  26  26  26  26  26  26  26  26  13  26  26  26  26  26  26  26  26  26  26  26  26  26  26  26  26  13  13  13  26  26  26  26  26  13  26  13  26  26  26  26  26  26  26  26  26  26  26  26  13  13  26  26  26  26  26  26  26  26  26  26  26  26  26  13  26  26  26  26  26  13  26  26  26  26  26  26  13  26  13  13  26  26  26  13  26  26  26  26  26  26  26  26  13  26  13  26  26  26  26  26  26  26  26  26  26  26  26  13  26  26  26  26  26  26  26  26  26  26  26  26  13  26  26  26  13  26  26  26  13  26  26  26  13  26  13  26  26  26  26  13  13  13  26  26  26  26  26  26  26  26  26  26  13  26  26  26  26  13  26  26  26  26  13  26  26  26  26  26  13  26  26  26  13  13  26  26  26  13  13  26  26  26  26  13  26  26  26  13  13  26  26  26  26  26  26  26  26  26  26  26  26  26  26  26  26  26  26  26  13  26  13  13  26  13  26  13  26  26  26  26  26  26  13  26  26  26  26  26  26  26  26  13  26  26  26  13  26  26  26  26  26  13  13  13  26  26  26  26  26  13  13  13  26  26  26  26  26  26  26  13  26  26  26  26  13  26  26  26  26  26  26  26  13  13  26  26  26  26  26  26  26  26  26  26  26  26  26  26  26  26  26  26  26  26  26  13  26  26  26  13  13  13  26  13  26  26  26  13  26  26  13  26  26  26  26  13  26  26  26  26  26  26  26  26  13  26  26  26  26  26  26  13  26  26  26  26  26  26  26  26  26  13  26  26  13  26  26  26  26  26  13  13  26  26  26  13  26  26  26  26  13  26  26  26  13  26  26  26  26  26  26  13  26  26  26  26  13  13  13  26  26  26  13  26  26  13  26  26  26  26  26  26  26  26  26  13  26  26  26  26  13  13  26  13  26  26  26  26  26  26  26  26  26  26  26  26  26  26  26  13  26  26  26  13  26  26  26  26  26  26  13  26  26  26  26  26  26  26  13  13  26  26  13  26  26  26  26  13  13  13  13  26  26  26  26

  24  24  24  24  24  24  24  24  24  24  12  12  24  24  12  12  24  12  24  24  24  24  24  24  24  24  24  24  24  24  24  24  24  24  24  12  24  24  24  24  24  12  24  24  24  24  24  24  12  24  24  24  24  24  24  24  24  24  12  24  24  12  24  24  24  24  24  24  24  24  12  24  12  24  24  24  12  24  24  24  24  24  24  12  12  24  24  24  24  12  24  24  12  24  24  24  24  24  24  24  24  24  24  12  24  24  12  24  12  12  12  24  12  24  24  24  12  24  24  12  24  24  24  24  24  24  24  24  24  24  24  24  24  24  24  24  24  24  24  24  24  24  24  24  24  24  24  12  12  24  12  24  24  24  24  24  24  24  24  24  24  24  24  24  24  24  24  24  12  12  24  24  24  24  24  12  24  12  24  12  24  24  12  24  24  12  24  24  24  24  24  24  24  24  24  24  24  24  24  24  12  24  24  24  12  12  12  24  24  12  24  24  24  24  24  24  24  24  24  24  12  24  24  24  24  24  24  24  24  24  24  24  24  24  24  24  24  12  12  12  24  24  24  24  24  12  24  12  24  24  24  24  24  24  24  24  24  24  24  24  12  12  24  24  24  24  24  24  24  24  24  24  24  24  24  12  24  24  24  24  24  12  24  24  24  24  24  24  12  24  12  12  24  24  24  12  24  24  24  24  24  24  24  24  12  24  12  24  24  24  24  24  24  24  24  24  24  24  24  12  24  24  24  24  24  24  24  24  24  24  24  24  12  24  24  24  12  24  24  24  12  24  24  24  12  24  12  24  24  24  24  12  12  12  24  24  24  24  24  24  24  24  24  24  12  24  24  24  24  12  24  24  24  24  12  24  24  24  24  24  12  24  24  24  12  12  24  24  24  12  12  24  24  24  24  12  24  24  24  12  12  24  24  24  24  24  24  24  24  24  24  24  24  24  24  24  24  24  24  24  12  24  12  12  24  12  24  12  24  24  24  24  24  24  12  24  24  24  24  24  24  24  24  12  24  24  24  12  24  24  24  24  24  12  12  12  24  24  24  24  24  12  12  12  24  24  24  24  24  24  24  12  24  24  24  24  12  24  24  24  24  24  24  24  12  12  24  24  24  24  24  24  24  24  24  24  24  24  24  24  24  24  24  24  24  24  24  12  24  24  24  12  12  12  24  12  24  24  24  12  24  24  12  24  24  24  24  12  24  24  24  24  24  24  24  24  12  24  24  24  24  24  24  12  24  24  24  24  24  24  24  24  24  12  24  24  12  24  24  24  24  24  12  12  24  24  24  12  24  24  24  24  12  24  24  24  12  24  24  24  24  24  24  12  24  24  24  24  12  12  12  24  24  24  12  24  24  12  24  24  24  24  24  24  24  24  24  12  24  24  24  24  12  12  24  12  24  24  24  24  24  24  24  24  24  24  24  24  24  24  24  12  24  24  24  12  24  24  24  24  24  24  12  24  24  24  24  24  24  24  12  12  24  24  12  24  24  24  24  12  12  12  12  24  24  24  24

  25  25  25  25  25  25  25  25  25  25  13  13  25  25  13  13  25  13  25  25  25  25  25  25  25  25  25  25  25  25  25  25  25  25  25  13  25  25  25  25  25  13  25  25  25  25  25  25  13  25  25  25  25  25  25  25  25  25  13  25  25  13  25  25  25  25  25  25  25  25  13  25  13  25  25  25  13  25  25  25  25  25  25  13  13  25  25  25  25  13  25  25  13  25  25  25  25  25  25  25  25  25  25  13  25  25  13  25  13  13  13  25  13  25  25  25  13  25  25  13  25  25  25  25  25  25  25  25  25  25  25  25  25  25  25  25  25  25  25  25  25  25  25  25  25  25  25  13  13  25  13  25  25  25  25  25  25  25  25  25  25  25  25  25  25  25  25  25  13  13  25  25  25  25  25  13  25  13  25  13  25  25  13  25  25  13  25  25  25  25  25  25  25  25  25  25  25  25  25  25  13  25  25  25  13  13  13  25  25  13  25  25  25  25  25  25  25  25  25  25  13  25  25  25  25  25  25  25  25  25  25  25  25  25  25  25  25  13  13  13  25  25  25  25  25  13  25  13  25  25  25  25  25  25  25  25  25  25  25  25  13  13  25  25  25  25  25  25  25  25  25  25  25  25  25  13  25  25  25  25  25  13  25  25  25  25  25  25  13  25  13  13  25  25  25  13  25  25  25  25  25  25  25  25  13  25  13  25  25  25  25  25  25  25  25  25  25  25  25  13  25  25  25  25  25  25  25  25  25  25  25  25  13  25  25  25  13  25  25  25  13  25  25  25  13  25  13  25  25  25  25  13  13  13  25  25  25  25  25  25  25  25  25  25  13  25  25  25  25  13  25  25  25  25  13  25  25  25  25  25  13  25  25  25  13  13  25  25  25  13  13  25  25  25  25  13  25  25  25  13  13  25  25  25  25  25  25  25  25  25  25  25  25  25  25  25  25  25  25  25  13  25  13  13  25  13  25  13  25  25  25  25  25  25  13  25  25  25  25  25  25  25  25  13  25  25  25  13  25  25  25  25  25  13  13  13  25  25  25  25  25  13  13  13  25  25  25  25  25  25  25  13  25  25  25  25  13  25  25  25  25  25  25  25  13  13  25  25  25  25  25  25  25  25  25  25  25  25  25  25  25  25  25  25  25  25  25  13  25  25  25  13  13  13  25  13  25  25  25  13  25  25  13  25  25  25  25  13  25  25  25  25  25  25  25  25  13  25  25  25  25  25  25  13  25  25  25  25  25  25  25  25  25  13  25  25  13  25  25  25  25  25  13  13  25  25  25  13  25  25  25  25  13  25  25  25  13  25  25  25  25  25  25  13  25  25  25  25  13  13  13  25  25  25  13  25  25  13  25  25  25  25  25  25  25  25  25  13  25  25  25  25  13  13  25  13  25  25  25  25  25  25  25  25  25  25  25  25  25  25  25  13  25  25  25  13  25  25  25  25  25  25  13  25  25  25  25  25  25  25  13  13  25  25  13  25  25  25  25  13  13  13  13  25  25  25  25

************************************************************************
